c --- [ banner ] -------------------------------------------------------------
c 
c CaDiCaL Radically Simplified CDCL SAT Solver
c Copyright (c) 2016-2021 A. Biere, M. Fleury, N. Froleyks
c 
c Version 1.5.2 a5f15211db36c3956764e18194dd5bd63bf3b5e6
c g++ (GCC) 9.3.0 -Wall -Wextra -O3 -DNDEBUG
c Fri Oct 21 01:27:37 EDT 2022 Linux gra-login3 3.10.0-1160.66.1.el7.x86_64 x86_64
c 
c --- [ limit ] --------------------------------------------------------------
c 
c setting conflict limit to 200000 conflicts (due to '200000')
c 
c --- [ parsing input ] ------------------------------------------------------
c 
c reading DIMACS file from '33.cubes6550.adj'
c opening file to read '33.cubes6550.adj'
c found 'p cnf 6160 1595482' header
c parsed 1595482 clauses in 19.99 seconds process time
c closing file '33.cubes6550.adj'
c after reading 1457566826 bytes 1390.0 MB
c 
c --- [ options ] ------------------------------------------------------------
c 
c all options are set to their default value
c 
c --- [ solving ] ------------------------------------------------------------
c 
c time measured in process time since initialization
c 
c  seconds    reductions  redundant   irredundant
c          MB     restarts       trail       variables
c            level   conflicts       glue         remaining
c 
c * 19.99 1380  0 0   0    0    0  0% 0 1595422 2322 38%
c { 21.07 1428  0 0   0    0    0  0% 0 1595422 2322 38%
c i 22.37 1472 533 0   0   35   22 27% 3 1595422 2318 38%
c - 34.29 1488 112 1  53  301  248 27% 28 543676 2310 38%
c i 38.30 1492 86 1  97  792  672 28% 30 543676 2309 37%
c i 38.90 1492 83 1 101  842  715 28% 29 543676 2308 37%
c i 39.04 1492 81 1 101  887  756 28% 29 543676 2307 37%
c i 39.07 1492 81 1 101  891  759 29% 29 543676 2306 37%
c } 40.50 1494 86 1 116 1000  855 28% 30 543676 2306 37%
c [ 40.50 1494  0 1 116 1000  855  0% 0 543676 2306 37%
c O 40.52 1494 37 1 116 1002  857 21% 30 543676 2306 37%
c i 40.93 1495 20 1 116 1087  917 31% 14 543676 2305 37%
c i 40.98 1495 20 1 116 1102  927 31% 14 543676 2304 37%
c - 42.19 1733 20 2 116 1342  980 32% 17 543658 2304 37%
c i 42.60 1733 21 2 116 1595 1160 32% 18 543658 2303 37%
c i 43.04 1733 19 2 117 2122 1410 32% 16 543658 2302 37%
c i 43.09 1733 19 2 117 2186 1451 32% 16 543658 2301 37%
c i 43.09 1733 19 2 117 2187 1451 32% 16 543658 2300 37%
c - 44.51 1731 19 3 117 2903 1382 32% 17 543646 2300 37%
c ] 45.09 1731 19 3 117 3001 1446 52% 17 543646 2300 37%
c 
c  seconds    reductions  redundant   irredundant
c          MB     restarts       trail       variables
c            level   conflicts       glue         remaining
c 
c { 45.09 1731 86 3 117 3001 1446 76% 30 543646 2300 37%
c F 45.12 1731 85 3 118 3006 1450 75% 30 543646 2300 37%
c i 45.59 1731 82 3 118 3068 1506 74% 29 543646 2299 37%
c i 45.85 1731 78 3 118 3157 1579 72% 28 543646 2298 37%
c i 45.92 1731 76 3 118 3204 1621 71% 27 543646 2297 37%
c i 46.45 1731 73 3 133 3366 1756 68% 28 543646 2296 37%
c i 48.14 1731 65 3 153 3767 2111 63% 27 543646 2291 37%
c i 48.19 1731 65 3 153 3788 2129 63% 26 543646 2284 37%
c i 48.26 1731 64 3 153 3830 2169 63% 26 543646 2281 37%
c i 48.49 1731 61 3 153 4009 2317 61% 25 543646 2280 37%
c i 48.68 1731 58 3 153 4170 2448 60% 25 543646 2279 37%
c i 49.14 1731 55 3 156 4426 2634 59% 24 543646 2278 37%
c - 52.32 1561 54 4 196 4986 2333 57% 24 446257 2278 37%
c d 53.07 1561 54 4 199 5000 2344 57% 24 439193 2271 37%
c p 56.55 1561 54 4 199 5000 6240 57% 24 439193 2242 36%
c d 57.28 1561 54 4 199 5000 6217 57% 24 439106 2240 36%
c # 58.37 1561 46 4 211 6007 6972 55% 23 439106 2240 36%
c } 59.73 1561 42 4 217 7001 7690 55% 21 439106 2240 36%
c [ 59.73 1561 19 4 217 7001 7690 52% 17 439106 2240 36%
c - 60.85 1374 21 5 218 7462 3375 51% 18 439106 2240 36%
c 
c  seconds    reductions   redundant   irredundant
c          MB     restarts        trail       variables
c            level    conflicts       glue         remaining
c 
c I 64.03 1374 25 5 219 10009 5153 51% 22 439106 2240 36%
c - 65.12 1552 26 6 220 10418 3714 51% 22 439106 2240 36%
c - 67.23 1374 29 7 222 13869 3967 50% 24 439106 2240 36%
c ] 68.16 1374 29 7 222 15001 4650 50% 24 439106 2240 36%
c { 68.16 1374 42 7 222 15001 4650 55% 21 439106 2240 36%
c p 71.03 1374 42 7 222 15001 8385 55% 21 439106 2240 36%
c B 71.35 1374 42 7 222 15010 8394 55% 21 439106 2240 36%
c - 76.98 1553 36 8 320 17811 4894 54% 20 439106 2240 36%
c s 77.81 1553 34 8 332 18849 5457 53% 19 437971 2240 36%
c v 82.58 1553 34 8 332 18849 5457 53% 19 437949 2240 36%
c t 82.71 1553 34 8 332 18849 5449 53% 19 437942 2240 36%
c e 84.53 1556 34 8 332 18849 5139 53% 19 435757 1016 16%
c s 84.67 1556 34 8 332 18849 5139 53% 19 435700 1016 16%
c W 90.61 1377 32 8 400 21011 6754 71% 19 435700 1016 16%
c - 96.93 1377 33 9 601 22246 5736 70% 19 435700 1016 16%
c - 116.75 1377 34 10 989 27164 6683 70% 21 435700 1016 16%
c F 117.06 1377 33 10 989 28012 7252 70% 21 435700 1016 16%
c 3 124.25 1377 33 10 1122 30001 9490 70% 20 435700 1016 16%
c p 126.63 1377 33 10 1122 30001 11610 70% 20 435700 1016 16%
c } 132.23 1377 33 10 1284 31001 12331 69% 21 435700 1016 16%
c 
c  seconds     reductions      redundant    irredundant
c           MB      restarts          trail        variables
c             level      conflicts         glue         remaining
c 
c [ 132.23 1377 29 10 1284 31001 12331 114% 24 435700 1016 16%
c - 134.14 1377 27 11 1284 32574 7647 107% 23 435700 1016 16%
c B 137.60 1377 25 11 1287 36015 9692 97% 21 435700 1016 16%
c - 140.51 1377 30 12 1288 38479 8037 92% 25 435700 1016 16%
c - 146.78 1377 38 13 1291 44874 9195 85% 31 435700 1016 16%
c W 148.96 1377 38 13 1291 45017 9303 85% 32 435700 1016 16%
c p 155.53 1377 36 13 1292 50004 15912 82% 30 435700 1016 16%
c - 157.78 1377 35 14 1292 51760 9188 81% 30 435700 1016 16%
c s 159.40 1377 35 14 1292 53828 10458 80% 29 435546 1016 16%
c v 166.38 1377 35 14 1292 53828 10458 80% 29 435529 1016 16%
c e 168.37 1378 35 14 1292 53828 10456 80% 29 435519 1006 16%
c s 168.57 1378 35 14 1292 53828 10456 80% 29 435408 1006 16%
c O 171.99 1378 34 14 1293 55020 11156 80% 29 435408 1006 16%
c ] 173.07 1378 34 14 1294 56099 11925 80% 29 435408 1006 16%
c 1 173.07 1378 34 14 1294 56099 11925 80% 29 435408 1006 16%
c 
c --- [ writing output ] -----------------------------------------------------
c 
c writing simplified CNF to DIMACS file 'simp/33.cubes6550.adj.simp1'
c * 173.07 1378 34 14 1294 56099 11925 80% 29 435408 1006 16%
c opening file to write 'simp/33.cubes6550.adj.simp1'
c writing 'p cnf 6160 435408' header
c closing file 'simp/33.cubes6550.adj.simp1'
c after writing 204426940 bytes 195.0 MB
c wrote 435408 clauses in 1.47 seconds process time
c 
c --- [ writing extension ] --------------------------------------------------
c 
c writing extension stack to 'simp/33.cubes6550.adj.ext1'
c opening file to write 'simp/33.cubes6550.adj.ext1'
c closing file 'simp/33.cubes6550.adj.ext1'
c after writing 81313 bytes 0.1 MB
c wrote 3643 witnesses in 0.00 seconds process time
c 
c --- [ result ] -------------------------------------------------------------
c 
s SATISFIABLE
c 
c --- [ run-time profiling ] -------------------------------------------------
c 
c process time taken by individual solving procedures
c (percentage relative to process time for solving)
c 
c       120.81   78.92% search
c        79.18   51.73% unstable
c        38.16   24.93% stable
c        32.26   21.08% simplify
c        19.99   13.06% parse
c        11.94    7.80% vivify
c        11.10    7.25% probe
c         6.62    4.32% elim
c         2.39    1.56% walk
c         1.07    0.70% lucky
c         0.66    0.43% subsume
c         0.25    0.17% ternary
c   =================================
c       153.07   87.70% solve
c 
c last line shows process time for solving
c (percentage relative to total process time)
c 
c --- [ statistics ] ---------------------------------------------------------
c 
c chronological:              9946        17.73 %  of conflicts
c conflicts:                 56099       366.48    per second
c decisions:                142541       931.19    per second
c eliminated:                 1234        20.03 %  of all variables
c fixed:                       767        12.45 %  of all variables
c learned:                   54954        97.96 %  per conflict
c learned_lits:           11007695       100.00 %  learned literals
c minimized:                     0         0.00 %  learned literals
c shrunken:                6397953        58.12 %  learned literals
c minishrunken:            1056169         9.59 %  learned literals
c propagations:            5558788         0.04 M  per second
c reduced:                   27788        49.53 %  per conflict
c rephased:                     10      5609.90    interval
c restarts:                   1294        43.35    interval
c stabilizing:                   3        62.57 %  of conflicts
c substituted:                   9         0.15 %  of all variables
c subsumed:                  16605         0.49 %  of all clauses
c strengthened:               6277         0.18 %  of all clauses
c ternary:                    3821         0.78 %  of resolved
c vivified:                     58         0.00 %  of all clauses
c walked:                        2     28049.50    interval
c weakened:                   2876         3.02    average size
c 
c seconds are measured in process time for solving
c 
c --- [ resources ] ----------------------------------------------------------
c 
c total process time since initialization:       174.53    seconds
c total real time since initialization:          174.67    seconds
c maximum resident set size of process:         1969.11    MB
c 
c --- [ shutting down ] ------------------------------------------------------
c 
c exit 10
WARNING! DIMACS header mismatch: wrong number of variables.
============================[ Problem Statistics ]=============================
|                                                                             |
|  Number of variables:          6120                                         |
|  Number of clauses:          435412                                         |
|  Parse time:                   2.66 s                                       |
|  Simplification time:          0.05 s                                       |
|                                                                             |
============================[ Search Statistics ]====================================================
| Conflicts |          ORIGINAL         |          LEARNT          | Num Sols |      SUBGRAPHS      |
|           |    Vars  Clauses Literals |    Limit  Clauses Lit/Cl |          | Canonical Noncanon. |
=====================================================================================================
|       100 |    6030   435412 44649800 |     2000      100    125 |        0 |        17         0 |
|       250 |    6030   435412 44649800 |     2000      250    123 |        0 |        23         0 |
|       478 |    6030   435415 44649898 |     2000      478     94 |        0 |        37         3 |
|       820 |    6030   435420 44650084 |     2000      820     98 |        0 |        57         8 |
|      1332 |    6030   435426 44650226 |     2000     1332     90 |        0 |        77        14 |
|      2105 |    6030   435440 44650493 |     3601     1106     46 |        0 |        91        28 |
|      3319 |    6030   435515 44652921 |     3601     2320     82 |        0 |       130       103 |
|      5344 |    6030   435832 44659592 |     5004     2548     55 |        0 |       255       420 |
|      8133 |    6030   436059 44664011 |     6305     2838     39 |        0 |       374       647 |
|     12941 |    6030   437023 44679952 |     7553     4494     42 |        0 |       773      1611 |
|     18920 |    6030   437236 44685138 |     8777     6697     59 |        0 |       859      1824 |
|     28967 |    6030   438634 44711075 |    11200     7367     45 |        0 |      1330      3222 |
|     43358 |    6030   440051 44734116 |    13611     9969     53 |        0 |      1806      4639 |
|     64055 |    6030   441287 44755186 |    17210     8465     19 |        0 |      2345      5875 |
|     93715 |    6030   441755 44763593 |    20810    10525     26 |        0 |      2554      6343 |
|    139453 |    6030   443704 44792308 |    24413    23266     68 |        3 |      3372      8289 |
|    207549 |    6030   446116 44837323 |    30410    24359     56 |        3 |      4126     10701 |
|    306715 |    6030   446756 44849420 |    37612    23327     44 |        3 |      4320     11341 |
|    458932 |    6030   451184 44946122 |    46026    31358     54 |        3 |      5740     15769 |
|    688416 |    6030   458985 45103554 |    56814    32230     40 |        5 |      8120     23568 |
|   1062584 |    6030   500628 45931157 |    70032    61016     70 |       19 |     20684     65197 |
|   1582988 |    6030   522244 46431616 |    85616    79604     63 |       21 |     30274     86811 |
|   2375209 |    6030   566283 47383882 |   106031    62640     45 |       23 |     47107    130848 |
|   3528879 |    6030   597679 47990691 |   128837   106716     64 |       26 |     58712    162241 |
|   5273294 |    6030   658683 49252793 |   157629   139923     63 |       27 |     80977    223244 |
|   7949296 |    6026   782784 51798445 |   193615   190911     74 |       29 |    127461    374128 |
|  11920482 |    5993   764686 39435979 |   207820   150702     61 |       31 |    178595    557637 |
=====================================================================================================
Number of solutions   : 32
Canonical subgraphs   : 299354         (9 /sec)
          order  3    : 1              (166667 /sec)
          order  4    : 1              (500000 /sec)
          order  5    : 1              (250000 /sec)
          order  6    : 1              (55556 /sec)
          order  7    : 1              (8696 /sec)
          order  8    : 2              (1365 /sec)
          order  9    : 7              (353 /sec)
          order 10    : 33             (114 /sec)
          order 11    : 148            (38 /sec)
          order 12    : 1207           (16 /sec)
          order 13    : 5149           (10 /sec)
          order 14    : 37619          (11 /sec)
          order 15    : 210282         (9 /sec)
          order 16    : 27191          (12 /sec)
          order 17    : 11417          (9 /sec)
          order 18    : 4642           (10 /sec)
          order 19    : 910            (11 /sec)
          order 20    : 344            (13 /sec)
          order 21    : 366            (13 /sec)
          order 22    : 32             (1 /sec)
Noncanonical subgraphs: 1035725        (96 /sec)
          order  3    : 0              (-nan /sec)
          order  4    : 0              (-nan /sec)
          order  5    : 0              (-nan /sec)
          order  6    : 0              (-nan /sec)
          order  7    : 0              (-nan /sec)
          order  8    : 0              (-nan /sec)
          order  9    : 0              (-nan /sec)
          order 10    : 0              (-nan /sec)
          order 11    : 0              (-nan /sec)
          order 12    : 0              (-nan /sec)
          order 13    : 19070          (3127 /sec)
          order 14    : 156462         (978 /sec)
          order 15    : 275255         (489 /sec)
          order 16    : 558670         (57 /sec)
          order 17    : 21069          (91 /sec)
          order 18    : 4614           (65 /sec)
          order 19    : 216            (36 /sec)
          order 20    : 2              (99 /sec)
          order 21    : 1              (168 /sec)
Canonicity checking   : 31625.1 s
Noncanonicity checking: 10807.2 s
Total canonicity time : 42432.2 s
database reductions   : 228
restarts              : 24571
conflicts             : 16061473       (323 /sec)
decisions             : 20790698       (0.00 % random) (418 /sec)
propagations          : 866521801      (17434 /sec)
conflict literals     : 1693911549     (56.62 % deleted)
actual reward         : 0.235560
Memory used           : 797.00 MB
CPU time              : 49703.9 s

UNSATISFIABLE
